multiobj/instances/uniform/Ter.5.4.1.00.2.in
5 4
0 468 183 274 334 
468 0 166 343 169 
183 166 0 751 345 
274 343 751 0 397 
334 169 345 397 0 
0 958 59 818 656 
958 0 572 623 715 
59 572 0 592 766 
818 623 592 0 960 
656 715 766 960 0 
0 958 59 818 656 
958 0 572 623 715 
59 572 0 592 766 
818 623 592 0 960 
656 715 766 960 0 
0 958 59 818 656 
958 0 572 623 715 
59 572 0 592 766 
818 623 592 0 960 
656 715 766 960 0 
0 958 59 818 656 
958 0 572 623 715 
59 572 0 592 766 
818 623 592 0 960 
656 715 766 960 0 
