multiobj/solutions/Ter.5.4.1.00.2.out
1 4
2 0 3 1 4 
3876462 3876462 3876462 3876462 
